Name: Ing0708-1
Courses: 85
Rooms: 17
Days: 5
Periods_per_day: 5
Curricula: 60
Constraints: 486

COURSES:
c0772 t000 3 3 6
c0793 t000 3 3 10
c0803 t001 3 2 20
c0806 t002 3 3 10
c0816 t003 3 3 24
c0820 t003 3 3 16
c0821 t002 3 3 16
c0823 t004 3 3 19
c0824 t002 3 3 16
c0826 t004 3 3 19
c0830 t005 3 3 29
c0836 t006 3 3 46
c0935 t007 6 4 80
c1009 t000 3 2 82
c1013 t008 3 3 60
c1027 t009 6 5 115
c1031 t010 6 5 90
c1033 t011 6 5 90
c1057 t001 3 3 30
c1067 t012 3 3 15
c1068 t013 3 3 38
c1074 t014 3 3 15
c0006 t015 3 3 29
c0011 t006 3 3 18
c0018 t016 3 3 28
c0026 t017 3 3 35
c0027 t018 3 3 25
c0046 t019 3 3 79
c0050 t020 3 1 55
c0051 t021 3 3 104
c0059 t022 3 3 104
c0064 t023 3 3 55
c0073 t024 3 3 42
c0080 t025 3 3 31
c0091 t026 3 3 17
c0097 t027 3 3 80
c0099 t028 3 3 130
c0101 t029 3 3 80
c0105 t030 3 3 153
c0109 t001 3 3 80
c0180 t031 3 3 160
c0184 t032 3 3 105
c0185 t033 3 3 105
c0189 t034 3 3 80
c0199 t035 3 3 80
c0200 t036 3 3 80
c0212 t037 3 3 112
c0215 t038 3 3 83
c0216 t039 3 2 112
c0220 t040 3 3 80
c0228 t041 3 3 83
c0231 t042 3 3 67
c0243 t039 3 3 55
c0247 t043 3 3 78
c0261 t044 3 3 125
c0281 t045 3 3 74
c0422 t040 3 3 35
c0427 t046 3 3 60
c0429 t047 3 3 130
c0433 t048 3 3 15
c0439 t049 3 3 30
c0440 t050 3 3 15
c0442 t051 3 3 15
c0446 t052 3 2 5
c0450 t053 3 2 82
c0452 t054 3 3 60
c1089 t055 6 5 130
c0462 t056 3 3 81
c0463 t057 3 3 81
c0474 t058 3 2 68
c0484 t059 3 3 38
c0495 t060 3 3 19
c0516 t030 3 3 40
c0519 t061 5 5 75
c0524 t027 3 2 45
c0533 t062 3 3 40
c0536 t063 3 3 15
c0600 t064 3 3 37
c0718 t065 3 3 5
c0513 t066 6 3 70
c0767 t065 3 3 63
c1180 t067 3 3 75
c1020 t012 3 3 25
c1058 t059 3 3 55
c0768 t026 3 3 40

ROOMS:
25	40
36	42
37	42
38	48
34	50
27	65
B	216
D	216
F	216
G	216
A	216
L	216
Dis	100
N	30
Er1	70
Er2	70
52	60

CURRICULA:
q000  1 c1033 
q001  4 c0180 c0097 c0101 c0109 
q003  3 c0099 c0105 c0935 
q004  1 c1089 
q005  3 c0006 c0216 c0212 
q006  4 c0006 c0216 c0212 c0427 
q007  5 c0011 c0018 c0026 c0027 c1020 
q008  5 c0231 c0220 c0427 c0080 c0091 
q009  5 c0823 c0011 c0826 c0830 c0772 
q010  1 c1027 
q011  4 c0051 c0059 c1009 c1013 
q012  4 c0050 c0064 c1058 c0046 
q013  4 c0050 c0064 c0073 c1058 
q014  4 c0050 c0064 c0261 c1058 
q017  4 c0212 c0215 c0216 c0228 
q018  5 c0215 c0216 c0228 c0772 c0212 
q019  4 c0220 c0231 c0767 c0768 
q020  4 c0220 c0243 c0247 c0767 
q021  4 c0220 c0767 c0427 c0247 
q022  1 c1031 
q023  4 c0180 c0189 c0199 c0200 
q024  4 c0184 c0185 c0105 c1180 
q025  4 c0184 c0185 c0105 c0018 
q026  4 c0184 c0185 c0105 c0429 
q028  3 c0046 c0051 c0059 
q029  4 c0184 c0185 c0261 c1180 
q030  4 c0184 c0185 c0261 c0474 
q031  4 c0184 c0185 c0261 c0281 
q032  4 c0450 c1009 c0600 c0474 
q033  4 c0450 c1009 c0600 c0281 
q034  4 c0450 c0452 c0429 c0261 
q035  4 c0450 c0452 c0018 c0261 
q036  4 c0462 c0463 c0073 c0495 
q037  3 c0462 c0463 c0474 
q038  3 c0462 c0463 c0099 
q039  5 c0462 c0463 c0027 c0803 c0026 
q040  5 c0231 c0439 c0836 c0243 c1074 
q041  6 c0433 c0836 c0231 c0439 c0440 c0442 
q042  5 c0422 c0816 c0247 c0427 c0429 
q043  5 c0422 c0247 c0429 c0768 c0446 
q044  5 c0422 c0247 c0429 c0768 c0816 
q045  5 c0422 c0247 c0429 c0768 c0718 
q046  5 c0422 c0247 c0429 c0768 c0427 
q047  4 c0474 c0281 c0073 c0261 
q048  4 c0474 c0281 c0261 c0495 
q049  3 c0474 c0281 c0073 
q050  2 c0484 c1068 
q051  4 c0484 c1068 c0600 c1067 
q052  3 c0484 c1068 c0524 
q053  2 c0513 c0516 
q054  2 c0513 c0429 
q055  2 c0519 c0524 
q056  3 c0519 c0533 c1057 
q057  2 c0519 c0536 
q058  4 c0793 c0830 c0026 c1020 
q059  5 c0816 c0836 c0427 c0820 c0830 
q060  4 c0836 c0830 c0427 c0820 
q061  4 c0803 c0533 c0806 c0080 
q062  5 c0821 c0823 c0826 c0080 c0824 
q063  4 c0821 c0823 c0824 c0826 

UNAVAILABILITY_CONSTRAINTS:
c0803 0 2
c0803 1 2
c0803 2 2
c0803 3 2
c0803 4 2
c0806 1 4
c0806 2 4
c0806 3 4
c0806 4 0
c0806 4 1
c0806 4 2
c0806 4 3
c0806 4 4
c0821 1 4
c0821 2 4
c0821 3 4
c0821 4 0
c0821 4 1
c0821 4 2
c0821 4 3
c0821 4 4
c0824 1 4
c0824 2 4
c0824 3 4
c0824 4 0
c0824 4 1
c0824 4 2
c0824 4 3
c0824 4 4
c0830 0 4
c0830 1 4
c0830 2 3
c0830 2 4
c0830 3 3
c0830 3 4
c0830 4 3
c0830 4 4
c0935 3 2
c0935 3 3
c0935 3 4
c0935 4 0
c0935 4 1
c0935 4 2
c0935 4 3
c0935 4 4
c1009 1 3
c1009 1 4
c1009 2 0
c1009 2 1
c1009 2 2
c1009 2 3
c1009 2 4
c1009 3 0
c1009 3 1
c1009 3 2
c1009 3 3
c1009 3 4
c1009 4 0
c1009 4 1
c1009 4 2
c1009 4 3
c1009 4 4
c1027 0 2
c1027 0 3
c1027 0 4
c1027 1 2
c1027 1 3
c1027 1 4
c1027 2 2
c1027 2 3
c1027 2 4
c1027 3 2
c1027 3 3
c1027 3 4
c1027 4 2
c1027 4 3
c1027 4 4
c1031 0 2
c1031 0 3
c1031 0 4
c1031 1 2
c1031 1 3
c1031 1 4
c1031 2 2
c1031 2 3
c1031 2 4
c1031 3 2
c1031 3 3
c1031 3 4
c1031 4 2
c1031 4 3
c1031 4 4
c1033 0 2
c1033 0 3
c1033 0 4
c1033 1 2
c1033 1 3
c1033 1 4
c1033 2 2
c1033 2 3
c1033 2 4
c1033 3 2
c1033 3 3
c1033 3 4
c1033 4 2
c1033 4 3
c1033 4 4
c1057 0 2
c1057 1 2
c1057 2 2
c1057 3 2
c1057 4 2
c1067 0 0
c1067 0 1
c1067 3 4
c1067 4 0
c1067 4 1
c1067 4 2
c1067 4 3
c1067 4 4
c1068 0 0
c1068 0 1
c1068 0 2
c1068 4 0
c1068 4 1
c1068 4 2
c1068 4 3
c1068 4 4
c1074 0 2
c1074 1 2
c1074 2 2
c1074 3 2
c1074 4 2
c1074 4 3
c1074 4 4
c0006 0 0
c0006 0 1
c0006 0 2
c0006 3 0
c0006 3 1
c0006 3 2
c0006 4 0
c0006 4 1
c0006 4 2
c0018 0 0
c0018 0 1
c0018 0 2
c0018 0 3
c0018 0 4
c0018 1 0
c0018 4 3
c0018 4 4
c0046 0 0
c0046 0 4
c0046 1 0
c0046 1 4
c0046 2 0
c0046 2 4
c0046 3 0
c0046 4 0
c0050 0 0
c0050 0 1
c0050 0 2
c0050 0 3
c0050 0 4
c0050 1 0
c0050 1 1
c0050 1 2
c0050 1 3
c0050 1 4
c0050 2 0
c0050 2 1
c0050 2 2
c0050 2 3
c0050 2 4
c0050 3 0
c0050 3 1
c0050 3 2
c0050 3 3
c0050 3 4
c0050 4 0
c0051 1 4
c0051 3 0
c0051 3 1
c0051 3 2
c0051 3 3
c0051 3 4
c0051 4 3
c0051 4 4
c0059 0 0
c0059 1 0
c0059 2 0
c0059 2 3
c0059 2 4
c0059 3 0
c0059 3 1
c0059 3 2
c0059 3 3
c0059 3 4
c0059 4 0
c0064 0 0
c0064 0 1
c0064 0 2
c0064 0 3
c0064 0 4
c0064 1 0
c0064 3 3
c0064 3 4
c0073 0 0
c0073 0 1
c0073 0 2
c0073 0 3
c0073 0 4
c0073 4 0
c0073 4 1
c0073 4 2
c0073 4 3
c0073 4 4
c0080 0 0
c0080 0 1
c0080 0 2
c0080 0 3
c0080 0 4
c0080 2 2
c0080 2 3
c0080 4 2
c0097 0 0
c0097 0 1
c0097 0 2
c0097 0 3
c0097 0 4
c0097 1 0
c0097 1 1
c0097 1 2
c0097 1 3
c0097 1 4
c0099 0 3
c0099 0 4
c0099 1 3
c0099 1 4
c0099 2 0
c0099 2 1
c0099 2 2
c0099 2 3
c0099 2 4
c0099 3 0
c0099 3 1
c0099 3 2
c0099 3 3
c0099 3 4
c0099 4 3
c0099 4 4
c0105 3 0
c0105 3 1
c0105 3 2
c0105 3 3
c0105 3 4
c0105 4 0
c0105 4 1
c0105 4 2
c0109 0 2
c0109 1 2
c0109 2 2
c0109 3 2
c0109 4 2
c0180 0 3
c0180 0 4
c0180 1 3
c0180 1 4
c0180 2 3
c0180 2 4
c0180 3 3
c0180 3 4
c0180 4 3
c0180 4 4
c0199 3 2
c0199 3 3
c0199 3 4
c0199 4 0
c0199 4 1
c0199 4 2
c0199 4 3
c0199 4 4
c0212 0 2
c0212 0 4
c0212 1 2
c0212 1 4
c0212 2 2
c0212 2 4
c0212 3 2
c0212 3 4
c0212 4 2
c0212 4 4
c0215 0 0
c0215 1 2
c0215 2 2
c0215 2 3
c0215 2 4
c0215 4 2
c0215 4 3
c0215 4 4
c0228 0 0
c0228 0 4
c0228 1 0
c0228 1 4
c0228 2 0
c0228 3 0
c0228 4 0
c0228 4 4
c0231 0 0
c0231 0 2
c0231 1 2
c0231 2 2
c0231 3 2
c0231 4 0
c0231 4 2
c0231 4 4
c0261 2 2
c0261 2 3
c0261 2 4
c0261 4 0
c0261 4 1
c0261 4 2
c0261 4 3
c0261 4 4
c0281 0 4
c0281 1 4
c0281 2 4
c0281 3 4
c0281 4 4
c0427 0 4
c0427 1 4
c0427 2 4
c0427 3 4
c0427 4 0
c0427 4 2
c0427 4 3
c0427 4 4
c0433 0 2
c0433 1 2
c0433 2 2
c0433 3 2
c0433 4 2
c0440 0 0
c0440 0 1
c0440 0 2
c0440 0 3
c0440 0 4
c0440 1 2
c0440 2 2
c0440 3 2
c0442 0 0
c0442 0 1
c0442 0 2
c0442 0 3
c0442 0 4
c0442 4 2
c0442 4 3
c0442 4 4
c0446 3 2
c0446 3 3
c0446 3 4
c0446 4 0
c0446 4 1
c0446 4 2
c0446 4 3
c0446 4 4
c0450 4 0
c0450 4 1
c0450 4 2
c0450 4 3
c0450 4 4
c1089 0 2
c1089 0 3
c1089 0 4
c1089 1 2
c1089 1 3
c1089 1 4
c1089 2 2
c1089 2 3
c1089 2 4
c1089 3 2
c1089 3 3
c1089 3 4
c1089 4 2
c1089 4 3
c1089 4 4
c0462 0 0
c0462 1 0
c0462 3 0
c0462 4 0
c0462 4 1
c0462 4 2
c0462 4 3
c0462 4 4
c0474 0 0
c0474 0 1
c0474 0 2
c0474 0 3
c0474 0 4
c0474 1 0
c0474 1 1
c0474 1 2
c0474 1 3
c0474 1 4
c0474 2 0
c0474 2 1
c0474 2 2
c0474 2 3
c0474 2 4
c0474 3 0
c0474 4 4
c0495 0 0
c0495 0 1
c0495 4 3
c0495 4 4
c0516 3 0
c0516 3 1
c0516 3 2
c0516 3 3
c0516 3 4
c0516 4 0
c0516 4 1
c0516 4 2
c0519 0 2
c0519 0 3
c0519 0 4
c0519 1 2
c0519 1 3
c0519 1 4
c0519 2 2
c0519 2 3
c0519 2 4
c0519 3 2
c0519 3 3
c0519 3 4
c0519 4 2
c0519 4 3
c0519 4 4
c0524 0 0
c0524 0 1
c0524 0 2
c0524 0 3
c0524 0 4
c0524 1 0
c0524 1 1
c0524 1 2
c0524 1 3
c0524 1 4
c0533 0 0
c0533 1 0
c0533 1 1
c0533 1 2
c0533 2 0
c0533 3 0
c0533 4 3
c0533 4 4
c0536 0 1
c0536 0 2
c0536 0 3
c0536 0 4
c0536 4 0
c0536 4 1
c0536 4 2
c0536 4 3
c0600 4 4
c0513 0 0
c0513 0 1
c0513 0 2
c0513 1 0
c0513 2 0
c0513 3 0
c0513 4 0
c0513 4 4
c1180 0 0
c1180 1 0
c1180 2 0
c1180 3 0
c1020 0 0
c1020 0 1
c1020 3 4
c1020 4 0
c1020 4 1
c1020 4 2
c1020 4 3
c1020 4 4

END.
